(set-logic QF_LRA)
(declare-fun X0 () Real )
(declare-fun Y0 () Real )
(declare-fun X1 () Real )
(declare-fun Y1 () Real )
(declare-fun X2 () Real )
(declare-fun Y2 () Real )
(declare-fun X3 () Real )
(declare-fun Y3 () Real )
(declare-fun X4 () Real )
(declare-fun Y4 () Real )
(declare-fun X5 () Real )
(declare-fun Y5 () Real )
(declare-fun X6 () Real )
(declare-fun Y6 () Real )
(declare-fun X7 () Real )
(declare-fun Y7 () Real )
(declare-fun X8 () Real )
(declare-fun Y8 () Real )
(declare-fun X9 () Real )
(declare-fun Y9 () Real )
(declare-fun X10 () Real )
(declare-fun Y10 () Real )
(declare-fun X11 () Real )
(declare-fun Y11 () Real )
(declare-fun X12 () Real )
(declare-fun Y12 () Real )
(declare-fun X13 () Real )
(declare-fun Y13 () Real )
(declare-fun X14 () Real )
(declare-fun Y14 () Real )
(declare-fun Z () Real )
(declare-fun k () Real )
(assert (let
(( $goal (>= Z k) ))
(let
((
$phi ( and 
( or ( <= ( + X0 77 ) X1 )  ( <= ( + X1 92 ) X0 )  ( <= ( + Y0 58 ) Y1 )  ( <= ( + Y1 74 ) Y0 )  )
( or ( <= ( + X0 77 ) X2 )  ( <= ( + X2 52 ) X0 )  ( <= ( + Y0 58 ) Y2 )  ( <= ( + Y2 69 ) Y0 )  )
( or ( <= ( + X0 77 ) X3 )  ( <= ( + X3 32 ) X0 )  ( <= ( + Y0 58 ) Y3 )  ( <= ( + Y3 63 ) Y0 )  )
( or ( <= ( + X0 77 ) X4 )  ( <= ( + X4 93 ) X0 )  ( <= ( + Y0 58 ) Y4 )  ( <= ( + Y4 63 ) Y0 )  )
( or ( <= ( + X0 77 ) X5 )  ( <= ( + X5 91 ) X0 )  ( <= ( + Y0 58 ) Y5 )  ( <= ( + Y5 45 ) Y0 )  )
( or ( <= ( + X0 77 ) X6 )  ( <= ( + X6 31 ) X0 )  ( <= ( + Y0 58 ) Y6 )  ( <= ( + Y6 78 ) Y0 )  )
( or ( <= ( + X0 77 ) X7 )  ( <= ( + X7 81 ) X0 )  ( <= ( + Y0 58 ) Y7 )  ( <= ( + Y7 83 ) Y0 )  )
( or ( <= ( + X0 77 ) X8 )  ( <= ( + X8 98 ) X0 )  ( <= ( + Y0 58 ) Y8 )  ( <= ( + Y8 21 ) Y0 )  )
( or ( <= ( + X0 77 ) X9 )  ( <= ( + X9 77 ) X0 )  ( <= ( + Y0 58 ) Y9 )  ( <= ( + Y9 86 ) Y0 )  )
( or ( <= ( + X0 77 ) X10 )  ( <= ( + X10 7 ) X0 )  ( <= ( + Y0 58 ) Y10 )  ( <= ( + Y10 80 ) Y0 )  )
( or ( <= ( + X0 77 ) X11 )  ( <= ( + X11 89 ) X0 )  ( <= ( + Y0 58 ) Y11 )  ( <= ( + Y11 11 ) Y0 )  )
( or ( <= ( + X0 77 ) X12 )  ( <= ( + X12 51 ) X0 )  ( <= ( + Y0 58 ) Y12 )  ( <= ( + Y12 61 ) Y0 )  )
( or ( <= ( + X0 77 ) X13 )  ( <= ( + X13 88 ) X0 )  ( <= ( + Y0 58 ) Y13 )  ( <= ( + Y13 47 ) Y0 )  )
( or ( <= ( + X0 77 ) X14 )  ( <= ( + X14 27 ) X0 )  ( <= ( + Y0 58 ) Y14 )  ( <= ( + Y14 95 ) Y0 )  )
( or ( <= ( + X1 92 ) X2 )  ( <= ( + X2 52 ) X1 )  ( <= ( + Y1 74 ) Y2 )  ( <= ( + Y2 69 ) Y1 )  )
( or ( <= ( + X1 92 ) X3 )  ( <= ( + X3 32 ) X1 )  ( <= ( + Y1 74 ) Y3 )  ( <= ( + Y3 63 ) Y1 )  )
( or ( <= ( + X1 92 ) X4 )  ( <= ( + X4 93 ) X1 )  ( <= ( + Y1 74 ) Y4 )  ( <= ( + Y4 63 ) Y1 )  )
( or ( <= ( + X1 92 ) X5 )  ( <= ( + X5 91 ) X1 )  ( <= ( + Y1 74 ) Y5 )  ( <= ( + Y5 45 ) Y1 )  )
( or ( <= ( + X1 92 ) X6 )  ( <= ( + X6 31 ) X1 )  ( <= ( + Y1 74 ) Y6 )  ( <= ( + Y6 78 ) Y1 )  )
( or ( <= ( + X1 92 ) X7 )  ( <= ( + X7 81 ) X1 )  ( <= ( + Y1 74 ) Y7 )  ( <= ( + Y7 83 ) Y1 )  )
( or ( <= ( + X1 92 ) X8 )  ( <= ( + X8 98 ) X1 )  ( <= ( + Y1 74 ) Y8 )  ( <= ( + Y8 21 ) Y1 )  )
( or ( <= ( + X1 92 ) X9 )  ( <= ( + X9 77 ) X1 )  ( <= ( + Y1 74 ) Y9 )  ( <= ( + Y9 86 ) Y1 )  )
( or ( <= ( + X1 92 ) X10 )  ( <= ( + X10 7 ) X1 )  ( <= ( + Y1 74 ) Y10 )  ( <= ( + Y10 80 ) Y1 )  )
( or ( <= ( + X1 92 ) X11 )  ( <= ( + X11 89 ) X1 )  ( <= ( + Y1 74 ) Y11 )  ( <= ( + Y11 11 ) Y1 )  )
( or ( <= ( + X1 92 ) X12 )  ( <= ( + X12 51 ) X1 )  ( <= ( + Y1 74 ) Y12 )  ( <= ( + Y12 61 ) Y1 )  )
( or ( <= ( + X1 92 ) X13 )  ( <= ( + X13 88 ) X1 )  ( <= ( + Y1 74 ) Y13 )  ( <= ( + Y13 47 ) Y1 )  )
( or ( <= ( + X1 92 ) X14 )  ( <= ( + X14 27 ) X1 )  ( <= ( + Y1 74 ) Y14 )  ( <= ( + Y14 95 ) Y1 )  )
( or ( <= ( + X2 52 ) X3 )  ( <= ( + X3 32 ) X2 )  ( <= ( + Y2 69 ) Y3 )  ( <= ( + Y3 63 ) Y2 )  )
( or ( <= ( + X2 52 ) X4 )  ( <= ( + X4 93 ) X2 )  ( <= ( + Y2 69 ) Y4 )  ( <= ( + Y4 63 ) Y2 )  )
( or ( <= ( + X2 52 ) X5 )  ( <= ( + X5 91 ) X2 )  ( <= ( + Y2 69 ) Y5 )  ( <= ( + Y5 45 ) Y2 )  )
( or ( <= ( + X2 52 ) X6 )  ( <= ( + X6 31 ) X2 )  ( <= ( + Y2 69 ) Y6 )  ( <= ( + Y6 78 ) Y2 )  )
( or ( <= ( + X2 52 ) X7 )  ( <= ( + X7 81 ) X2 )  ( <= ( + Y2 69 ) Y7 )  ( <= ( + Y7 83 ) Y2 )  )
( or ( <= ( + X2 52 ) X8 )  ( <= ( + X8 98 ) X2 )  ( <= ( + Y2 69 ) Y8 )  ( <= ( + Y8 21 ) Y2 )  )
( or ( <= ( + X2 52 ) X9 )  ( <= ( + X9 77 ) X2 )  ( <= ( + Y2 69 ) Y9 )  ( <= ( + Y9 86 ) Y2 )  )
( or ( <= ( + X2 52 ) X10 )  ( <= ( + X10 7 ) X2 )  ( <= ( + Y2 69 ) Y10 )  ( <= ( + Y10 80 ) Y2 )  )
( or ( <= ( + X2 52 ) X11 )  ( <= ( + X11 89 ) X2 )  ( <= ( + Y2 69 ) Y11 )  ( <= ( + Y11 11 ) Y2 )  )
( or ( <= ( + X2 52 ) X12 )  ( <= ( + X12 51 ) X2 )  ( <= ( + Y2 69 ) Y12 )  ( <= ( + Y12 61 ) Y2 )  )
( or ( <= ( + X2 52 ) X13 )  ( <= ( + X13 88 ) X2 )  ( <= ( + Y2 69 ) Y13 )  ( <= ( + Y13 47 ) Y2 )  )
( or ( <= ( + X2 52 ) X14 )  ( <= ( + X14 27 ) X2 )  ( <= ( + Y2 69 ) Y14 )  ( <= ( + Y14 95 ) Y2 )  )
( or ( <= ( + X3 32 ) X4 )  ( <= ( + X4 93 ) X3 )  ( <= ( + Y3 63 ) Y4 )  ( <= ( + Y4 63 ) Y3 )  )
( or ( <= ( + X3 32 ) X5 )  ( <= ( + X5 91 ) X3 )  ( <= ( + Y3 63 ) Y5 )  ( <= ( + Y5 45 ) Y3 )  )
( or ( <= ( + X3 32 ) X6 )  ( <= ( + X6 31 ) X3 )  ( <= ( + Y3 63 ) Y6 )  ( <= ( + Y6 78 ) Y3 )  )
( or ( <= ( + X3 32 ) X7 )  ( <= ( + X7 81 ) X3 )  ( <= ( + Y3 63 ) Y7 )  ( <= ( + Y7 83 ) Y3 )  )
( or ( <= ( + X3 32 ) X8 )  ( <= ( + X8 98 ) X3 )  ( <= ( + Y3 63 ) Y8 )  ( <= ( + Y8 21 ) Y3 )  )
( or ( <= ( + X3 32 ) X9 )  ( <= ( + X9 77 ) X3 )  ( <= ( + Y3 63 ) Y9 )  ( <= ( + Y9 86 ) Y3 )  )
( or ( <= ( + X3 32 ) X10 )  ( <= ( + X10 7 ) X3 )  ( <= ( + Y3 63 ) Y10 )  ( <= ( + Y10 80 ) Y3 )  )
( or ( <= ( + X3 32 ) X11 )  ( <= ( + X11 89 ) X3 )  ( <= ( + Y3 63 ) Y11 )  ( <= ( + Y11 11 ) Y3 )  )
( or ( <= ( + X3 32 ) X12 )  ( <= ( + X12 51 ) X3 )  ( <= ( + Y3 63 ) Y12 )  ( <= ( + Y12 61 ) Y3 )  )
( or ( <= ( + X3 32 ) X13 )  ( <= ( + X13 88 ) X3 )  ( <= ( + Y3 63 ) Y13 )  ( <= ( + Y13 47 ) Y3 )  )
( or ( <= ( + X3 32 ) X14 )  ( <= ( + X14 27 ) X3 )  ( <= ( + Y3 63 ) Y14 )  ( <= ( + Y14 95 ) Y3 )  )
( or ( <= ( + X4 93 ) X5 )  ( <= ( + X5 91 ) X4 )  ( <= ( + Y4 63 ) Y5 )  ( <= ( + Y5 45 ) Y4 )  )
( or ( <= ( + X4 93 ) X6 )  ( <= ( + X6 31 ) X4 )  ( <= ( + Y4 63 ) Y6 )  ( <= ( + Y6 78 ) Y4 )  )
( or ( <= ( + X4 93 ) X7 )  ( <= ( + X7 81 ) X4 )  ( <= ( + Y4 63 ) Y7 )  ( <= ( + Y7 83 ) Y4 )  )
( or ( <= ( + X4 93 ) X8 )  ( <= ( + X8 98 ) X4 )  ( <= ( + Y4 63 ) Y8 )  ( <= ( + Y8 21 ) Y4 )  )
( or ( <= ( + X4 93 ) X9 )  ( <= ( + X9 77 ) X4 )  ( <= ( + Y4 63 ) Y9 )  ( <= ( + Y9 86 ) Y4 )  )
( or ( <= ( + X4 93 ) X10 )  ( <= ( + X10 7 ) X4 )  ( <= ( + Y4 63 ) Y10 )  ( <= ( + Y10 80 ) Y4 )  )
( or ( <= ( + X4 93 ) X11 )  ( <= ( + X11 89 ) X4 )  ( <= ( + Y4 63 ) Y11 )  ( <= ( + Y11 11 ) Y4 )  )
( or ( <= ( + X4 93 ) X12 )  ( <= ( + X12 51 ) X4 )  ( <= ( + Y4 63 ) Y12 )  ( <= ( + Y12 61 ) Y4 )  )
( or ( <= ( + X4 93 ) X13 )  ( <= ( + X13 88 ) X4 )  ( <= ( + Y4 63 ) Y13 )  ( <= ( + Y13 47 ) Y4 )  )
( or ( <= ( + X4 93 ) X14 )  ( <= ( + X14 27 ) X4 )  ( <= ( + Y4 63 ) Y14 )  ( <= ( + Y14 95 ) Y4 )  )
( or ( <= ( + X5 91 ) X6 )  ( <= ( + X6 31 ) X5 )  ( <= ( + Y5 45 ) Y6 )  ( <= ( + Y6 78 ) Y5 )  )
( or ( <= ( + X5 91 ) X7 )  ( <= ( + X7 81 ) X5 )  ( <= ( + Y5 45 ) Y7 )  ( <= ( + Y7 83 ) Y5 )  )
( or ( <= ( + X5 91 ) X8 )  ( <= ( + X8 98 ) X5 )  ( <= ( + Y5 45 ) Y8 )  ( <= ( + Y8 21 ) Y5 )  )
( or ( <= ( + X5 91 ) X9 )  ( <= ( + X9 77 ) X5 )  ( <= ( + Y5 45 ) Y9 )  ( <= ( + Y9 86 ) Y5 )  )
( or ( <= ( + X5 91 ) X10 )  ( <= ( + X10 7 ) X5 )  ( <= ( + Y5 45 ) Y10 )  ( <= ( + Y10 80 ) Y5 )  )
( or ( <= ( + X5 91 ) X11 )  ( <= ( + X11 89 ) X5 )  ( <= ( + Y5 45 ) Y11 )  ( <= ( + Y11 11 ) Y5 )  )
( or ( <= ( + X5 91 ) X12 )  ( <= ( + X12 51 ) X5 )  ( <= ( + Y5 45 ) Y12 )  ( <= ( + Y12 61 ) Y5 )  )
( or ( <= ( + X5 91 ) X13 )  ( <= ( + X13 88 ) X5 )  ( <= ( + Y5 45 ) Y13 )  ( <= ( + Y13 47 ) Y5 )  )
( or ( <= ( + X5 91 ) X14 )  ( <= ( + X14 27 ) X5 )  ( <= ( + Y5 45 ) Y14 )  ( <= ( + Y14 95 ) Y5 )  )
( or ( <= ( + X6 31 ) X7 )  ( <= ( + X7 81 ) X6 )  ( <= ( + Y6 78 ) Y7 )  ( <= ( + Y7 83 ) Y6 )  )
( or ( <= ( + X6 31 ) X8 )  ( <= ( + X8 98 ) X6 )  ( <= ( + Y6 78 ) Y8 )  ( <= ( + Y8 21 ) Y6 )  )
( or ( <= ( + X6 31 ) X9 )  ( <= ( + X9 77 ) X6 )  ( <= ( + Y6 78 ) Y9 )  ( <= ( + Y9 86 ) Y6 )  )
( or ( <= ( + X6 31 ) X10 )  ( <= ( + X10 7 ) X6 )  ( <= ( + Y6 78 ) Y10 )  ( <= ( + Y10 80 ) Y6 )  )
( or ( <= ( + X6 31 ) X11 )  ( <= ( + X11 89 ) X6 )  ( <= ( + Y6 78 ) Y11 )  ( <= ( + Y11 11 ) Y6 )  )
( or ( <= ( + X6 31 ) X12 )  ( <= ( + X12 51 ) X6 )  ( <= ( + Y6 78 ) Y12 )  ( <= ( + Y12 61 ) Y6 )  )
( or ( <= ( + X6 31 ) X13 )  ( <= ( + X13 88 ) X6 )  ( <= ( + Y6 78 ) Y13 )  ( <= ( + Y13 47 ) Y6 )  )
( or ( <= ( + X6 31 ) X14 )  ( <= ( + X14 27 ) X6 )  ( <= ( + Y6 78 ) Y14 )  ( <= ( + Y14 95 ) Y6 )  )
( or ( <= ( + X7 81 ) X8 )  ( <= ( + X8 98 ) X7 )  ( <= ( + Y7 83 ) Y8 )  ( <= ( + Y8 21 ) Y7 )  )
( or ( <= ( + X7 81 ) X9 )  ( <= ( + X9 77 ) X7 )  ( <= ( + Y7 83 ) Y9 )  ( <= ( + Y9 86 ) Y7 )  )
( or ( <= ( + X7 81 ) X10 )  ( <= ( + X10 7 ) X7 )  ( <= ( + Y7 83 ) Y10 )  ( <= ( + Y10 80 ) Y7 )  )
( or ( <= ( + X7 81 ) X11 )  ( <= ( + X11 89 ) X7 )  ( <= ( + Y7 83 ) Y11 )  ( <= ( + Y11 11 ) Y7 )  )
( or ( <= ( + X7 81 ) X12 )  ( <= ( + X12 51 ) X7 )  ( <= ( + Y7 83 ) Y12 )  ( <= ( + Y12 61 ) Y7 )  )
( or ( <= ( + X7 81 ) X13 )  ( <= ( + X13 88 ) X7 )  ( <= ( + Y7 83 ) Y13 )  ( <= ( + Y13 47 ) Y7 )  )
( or ( <= ( + X7 81 ) X14 )  ( <= ( + X14 27 ) X7 )  ( <= ( + Y7 83 ) Y14 )  ( <= ( + Y14 95 ) Y7 )  )
( or ( <= ( + X8 98 ) X9 )  ( <= ( + X9 77 ) X8 )  ( <= ( + Y8 21 ) Y9 )  ( <= ( + Y9 86 ) Y8 )  )
( or ( <= ( + X8 98 ) X10 )  ( <= ( + X10 7 ) X8 )  ( <= ( + Y8 21 ) Y10 )  ( <= ( + Y10 80 ) Y8 )  )
( or ( <= ( + X8 98 ) X11 )  ( <= ( + X11 89 ) X8 )  ( <= ( + Y8 21 ) Y11 )  ( <= ( + Y11 11 ) Y8 )  )
( or ( <= ( + X8 98 ) X12 )  ( <= ( + X12 51 ) X8 )  ( <= ( + Y8 21 ) Y12 )  ( <= ( + Y12 61 ) Y8 )  )
( or ( <= ( + X8 98 ) X13 )  ( <= ( + X13 88 ) X8 )  ( <= ( + Y8 21 ) Y13 )  ( <= ( + Y13 47 ) Y8 )  )
( or ( <= ( + X8 98 ) X14 )  ( <= ( + X14 27 ) X8 )  ( <= ( + Y8 21 ) Y14 )  ( <= ( + Y14 95 ) Y8 )  )
( or ( <= ( + X9 77 ) X10 )  ( <= ( + X10 7 ) X9 )  ( <= ( + Y9 86 ) Y10 )  ( <= ( + Y10 80 ) Y9 )  )
( or ( <= ( + X9 77 ) X11 )  ( <= ( + X11 89 ) X9 )  ( <= ( + Y9 86 ) Y11 )  ( <= ( + Y11 11 ) Y9 )  )
( or ( <= ( + X9 77 ) X12 )  ( <= ( + X12 51 ) X9 )  ( <= ( + Y9 86 ) Y12 )  ( <= ( + Y12 61 ) Y9 )  )
( or ( <= ( + X9 77 ) X13 )  ( <= ( + X13 88 ) X9 )  ( <= ( + Y9 86 ) Y13 )  ( <= ( + Y13 47 ) Y9 )  )
( or ( <= ( + X9 77 ) X14 )  ( <= ( + X14 27 ) X9 )  ( <= ( + Y9 86 ) Y14 )  ( <= ( + Y14 95 ) Y9 )  )
( or ( <= ( + X10 7 ) X11 )  ( <= ( + X11 89 ) X10 )  ( <= ( + Y10 80 ) Y11 )  ( <= ( + Y11 11 ) Y10 )  )
( or ( <= ( + X10 7 ) X12 )  ( <= ( + X12 51 ) X10 )  ( <= ( + Y10 80 ) Y12 )  ( <= ( + Y12 61 ) Y10 )  )
( or ( <= ( + X10 7 ) X13 )  ( <= ( + X13 88 ) X10 )  ( <= ( + Y10 80 ) Y13 )  ( <= ( + Y13 47 ) Y10 )  )
( or ( <= ( + X10 7 ) X14 )  ( <= ( + X14 27 ) X10 )  ( <= ( + Y10 80 ) Y14 )  ( <= ( + Y14 95 ) Y10 )  )
( or ( <= ( + X11 89 ) X12 )  ( <= ( + X12 51 ) X11 )  ( <= ( + Y11 11 ) Y12 )  ( <= ( + Y12 61 ) Y11 )  )
( or ( <= ( + X11 89 ) X13 )  ( <= ( + X13 88 ) X11 )  ( <= ( + Y11 11 ) Y13 )  ( <= ( + Y13 47 ) Y11 )  )
( or ( <= ( + X11 89 ) X14 )  ( <= ( + X14 27 ) X11 )  ( <= ( + Y11 11 ) Y14 )  ( <= ( + Y14 95 ) Y11 )  )
( or ( <= ( + X12 51 ) X13 )  ( <= ( + X13 88 ) X12 )  ( <= ( + Y12 61 ) Y13 )  ( <= ( + Y13 47 ) Y12 )  )
( or ( <= ( + X12 51 ) X14 )  ( <= ( + X14 27 ) X12 )  ( <= ( + Y12 61 ) Y14 )  ( <= ( + Y14 95 ) Y12 )  )
( or ( <= ( + X13 88 ) X14 )  ( <= ( + X14 27 ) X13 )  ( <= ( + Y13 47 ) Y14 )  ( <= ( + Y14 95 ) Y13 )  )
( >= X0 0)
( <= ( + X0 77) Z)
( >= Y0 0)
( <= ( + Y0 58 ) 100)
( >= X1 0)
( <= ( + X1 92) Z)
( >= Y1 0)
( <= ( + Y1 74 ) 100)
( >= X2 0)
( <= ( + X2 52) Z)
( >= Y2 0)
( <= ( + Y2 69 ) 100)
( >= X3 0)
( <= ( + X3 32) Z)
( >= Y3 0)
( <= ( + Y3 63 ) 100)
( >= X4 0)
( <= ( + X4 93) Z)
( >= Y4 0)
( <= ( + Y4 63 ) 100)
( >= X5 0)
( <= ( + X5 91) Z)
( >= Y5 0)
( <= ( + Y5 45 ) 100)
( >= X6 0)
( <= ( + X6 31) Z)
( >= Y6 0)
( <= ( + Y6 78 ) 100)
( >= X7 0)
( <= ( + X7 81) Z)
( >= Y7 0)
( <= ( + Y7 83 ) 100)
( >= X8 0)
( <= ( + X8 98) Z)
( >= Y8 0)
( <= ( + Y8 21 ) 100)
( >= X9 0)
( <= ( + X9 77) Z)
( >= Y9 0)
( <= ( + Y9 86 ) 100)
( >= X10 0)
( <= ( + X10 7) Z)
( >= Y10 0)
( <= ( + Y10 80 ) 100)
( >= X11 0)
( <= ( + X11 89) Z)
( >= Y11 0)
( <= ( + Y11 11 ) 100)
( >= X12 0)
( <= ( + X12 51) Z)
( >= Y12 0)
( <= ( + Y12 61 ) 100)
( >= X13 0)
( <= ( + X13 88) Z)
( >= Y13 0)
( <= ( + Y13 47 ) 100)
( >= X14 0)
( <= ( + X14 27) Z)
( >= Y14 0)
( <= ( + Y14 95 ) 100)
) )
)(=> $phi $goal))))